% ============================================================
% OPT-02 — Días no deseados con conflicto forzado
% ============================================================
% Objetivo: comprobar que el optimizador minimiza correctamente
% los incumplimientos de días no deseados (diaND). Se crean
% conflictos inevitables: más peticiones de día libre de las que
% el planificador puede satisfacer dado N1+N2+N3 = 6 con T = 8.
%
% En los días 1 y 4, siete de los ocho trabajadores piden librar.
% Como se necesitan 6 trabajadores cada día, al menos 5 de esas
% peticiones tendrán que incumplirse en cada uno de esos días.
% El óptimo distribuye los incumplimientos equitativamente.
%
% Restricciones activas:
%   R1-R9 estándar
%   diaND activo con conflicto en días 1 y 4
%   turnoND = todo 0 (sin preferencia de turno)
%   antiestres = {}, doblar = {}
%
% Ejecutar con "solve minimize" del apartado 3


D = 7;
T = 8;
N1 = 2;
N2 = 2;
N3 = 2;
MaxDT = 4;
MaxDL = 3;
MinDT = 3;
A = 1;

afines = [|false, true,  true,  true,  true,  true,  true,  true
          |true,  false, true,  true,  true,  true,  true,  true
          |true,  true,  false, true,  true,  true,  true,  true
          |true,  true,  true,  false, true,  true,  true,  true
          |true,  true,  true,  true,  false, true,  true,  true
          |true,  true,  true,  true,  true,  false, true,  true
          |true,  true,  true,  true,  true,  true,  false, true
          |true,  true,  true,  true,  true,  true,  true,  false|];

R = {1, 3, 5, 7};

antiestres = {};
doblar     = {};

% Días 1 y 4: casi todos piden librar (trabajador 8 no pide nada)
diaND = [|true,  false, false, true,  false, false, false   % trabajador 1
         |true,  false, false, true,  false, false, false   % trabajador 2
         |true,  false, false, true,  false, false, false   % trabajador 3
         |true,  false, false, true,  false, false, false   % trabajador 4
         |true,  false, false, true,  false, false, false   % trabajador 5
         |true,  false, false, true,  false, false, false   % trabajador 6
         |true,  false, false, true,  false, false, false   % trabajador 7
         |false, false, false, false, false, false, false|];% trabajador 8

% Sin preferencias de turno
turnoND = [|0, 0, 0, 0, 0, 0, 0
           |0, 0, 0, 0, 0, 0, 0
           |0, 0, 0, 0, 0, 0, 0
           |0, 0, 0, 0, 0, 0, 0
           |0, 0, 0, 0, 0, 0, 0
           |0, 0, 0, 0, 0, 0, 0
           |0, 0, 0, 0, 0, 0, 0
           |0, 0, 0, 0, 0, 0, 0|];
